min

obj:

+2.49 x0
+2.89 x1
+1.5 x2
+1.89 x3
+2.09 x4
+1.99 x5
+2.49 x6
+0.89 x7
+1.59 x8


s.t.

cMinNutrients:
-410.0 x0
-420.0 x1
-560.0 x2
-380.0 x3
-320.0 x4
-320.0 x5
-320.0 x6
-100.0 x7
-330.0 x8
 <= -1800.0

cMinNutrients:
-26.0 x0
-10.0 x1
-32.0 x2
-19.0 x3
-10.0 x4
-12.0 x5
-12.0 x6
-2.5 x7
-10.0 x8
 <= -0.0

cMinNutrients:
-24.0 x0
-32.0 x1
-20.0 x2
-4.0 x3
-12.0 x4
-15.0 x5
-31.0 x6
-8.0 x7
-8.0 x8
 <= -91.0

cMinNutrients:
-730.0 x0
-1190.0 x1
-1800.0 x2
-270.0 x3
-930.0 x4
-820.0 x5
-1230.0 x6
-125.0 x7
-180.0 x8
 <= -0.0

cMaxNutrients:
+410.0 x0
+420.0 x1
+560.0 x2
+380.0 x3
+320.0 x4
+320.0 x5
+320.0 x6
+100.0 x7
+330.0 x8
 <= 2200.0

cMaxNutrients:
+26.0 x0
+10.0 x1
+32.0 x2
+19.0 x3
+10.0 x4
+12.0 x5
+12.0 x6
+2.5 x7
+10.0 x8
 <= 65.0

cMaxNutrients:
+24.0 x0
+32.0 x1
+20.0 x2
+4.0 x3
+12.0 x4
+15.0 x5
+31.0 x6
+8.0 x7
+8.0 x8
 <= -0.0

cMaxNutrients:
+730.0 x0
+1190.0 x1
+1800.0 x2
+270.0 x3
+930.0 x4
+820.0 x5
+1230.0 x6
+125.0 x7
+180.0 x8
 <= 1779.0



bounds

+0 <= x0 <= inf
+0 <= x1 <= inf
+0 <= x2 <= inf
+0 <= x3 <= inf
+0 <= x4 <= inf
+0 <= x5 <= inf
+0 <= x6 <= inf
+0 <= x7 <= inf
+0 <= x8 <= inf
end
